32	0

0	1	2
2	1	3
7	1	4
8	1	5
3	1	6
4	1	7
9	1	8
5	1	9
7	1	10
8	1	11
1	1	12
7	1	13
3	1	14
5	1	15
1	1	16
3	1	17
1	1	18
1	1	19
9	1	20
9	1	21
4	1	22
8	1	23
6	1	24
7	1	25
1	1	26
4	1	27
6	1	28
2	1	29
3	1	30
3	1	31
1	1	32
0	0
